minizinc/sudoku_problems2/sudoku_p47.dzn
%
% sudoku_p47.dzn
% See http://www.hakank.org/minizinc/sudoku_gcc.mzn
% 
% This problem is problem 47 from
% Gecode's sudoku.cpp
% http://www.gecode.org/gecode-doc-latest/sudoku_8cpp-source.html
% 
x = array2d(1..n, 1..n, [   
% http://janko.at/Raetsel/Sudoku/364.a.htm
% 47
  1,  _,  _,  _,  _,  _,  6, 12,  _,  4, 16,  _,  9, 11, 10,  _,
  _, 16,  6,  _,  _, 15,  _,  9, 10,  _, 13,  1,  _,  _,  _,  2,
  _,  _,  _, 13,  7, 16,  _,  3, 15,  _,  _,  _,  4,  1,  _,  _,
  _,  3, 10,  _,  2,  _,  _,  1,  _,  7,  5,  9,  _, 14,  _, 16,
 11,  8,  _,  _, 13,  _, 15,  _, 12,  _,  2,  _, 10,  _,  _,  _,
 12,  _,  _,  _,  _,  1,  _,  _, 13, 11, 15, 10,  2,  _,  _,  5,
  _,  _, 15, 16,  _, 14,  _,  _,  _,  _,  _,  5,  8, 12,  9,  _,
  _,  2,  5, 10,  3,  _, 12,  _, 16,  _,  _, 14,  _,  _,  _,  1,
  3,  _,  _,  _,  4,  _,  _, 11,  _, 16,  _, 13, 14,  7,  8,  _,
  _, 12,  7,  8, 10,  _,  _,  _,  _,  _,  3,  _,  1,  2,  _,  _,
  5,  _,  _,  1, 15, 12,  3,  7,  _,  _, 14,  _,  _,  _,  _,  9,
  _,  _,  _,  4,  _,  2,  _,  8,  _, 15,  _, 11,  _,  _, 12, 10,
 10,  _,  4,  _,  6, 11,  7,  _,  5,  _,  _, 15,  _,  9, 13,  _,
  _,  _,  8, 12,  _,  _,  _, 13, 11,  _,  9,  7,  5,  _,  _,  _,
  9,  _,  _,  _,  8,  5,  _, 14,  3,  _, 10,  _,  _,  4,  6,  _,
  _,  5, 13,  7,  _, 10,  9,  _, 14,  2,  _,  _,  _,  _,  _,  8
]);

n = 16;


